unsat
(error "line 2516 column 17: model is not available")
(error "line 2517 column 17: model is not available")
(error "line 2518 column 18: model is not available")
(error "line 2519 column 18: model is not available")
(error "line 2520 column 18: model is not available")
(error "line 2521 column 18: model is not available")
(error "line 2522 column 18: model is not available")
(error "line 2523 column 18: model is not available")
(error "line 2524 column 18: model is not available")
(error "line 2525 column 18: model is not available")
(error "line 2526 column 18: model is not available")
(error "line 2527 column 18: model is not available")
(error "line 2528 column 17: model is not available")
(error "line 2529 column 18: model is not available")
(error "line 2530 column 18: model is not available")
(error "line 2531 column 18: model is not available")
(error "line 2532 column 18: model is not available")
(error "line 2533 column 18: model is not available")
(error "line 2534 column 18: model is not available")
(error "line 2535 column 18: model is not available")
(error "line 2536 column 18: model is not available")
(error "line 2537 column 18: model is not available")
(error "line 2538 column 18: model is not available")
(error "line 2539 column 17: model is not available")
(error "line 2540 column 18: model is not available")
(error "line 2541 column 18: model is not available")
(error "line 2542 column 18: model is not available")
(error "line 2543 column 18: model is not available")
(error "line 2544 column 18: model is not available")
(error "line 2545 column 18: model is not available")
(error "line 2546 column 18: model is not available")
(error "line 2547 column 18: model is not available")
(error "line 2548 column 18: model is not available")
(error "line 2549 column 18: model is not available")
(error "line 2550 column 17: model is not available")
(error "line 2551 column 18: model is not available")
(error "line 2552 column 18: model is not available")
(error "line 2553 column 17: model is not available")
(error "line 2554 column 17: model is not available")
(error "line 2555 column 17: model is not available")
(error "line 2556 column 17: model is not available")
(error "line 2557 column 17: model is not available")
(error "line 2558 column 34: model is not available")
(error "line 2559 column 34: model is not available")
(error "line 2560 column 34: model is not available")
(error "line 2561 column 34: model is not available")
(error "line 2562 column 34: model is not available")
(error "line 2563 column 71: model is not available")
(error "line 2564 column 71: model is not available")
(error "line 2565 column 28: model is not available")
(error "line 2566 column 34: model is not available")
(error "line 2567 column 34: model is not available")
(error "line 2568 column 34: model is not available")
(error "line 2569 column 34: model is not available")
(error "line 2570 column 34: model is not available")
(error "line 2571 column 71: model is not available")
(error "line 2572 column 71: model is not available")
(error "line 2573 column 28: model is not available")
(error "line 2574 column 34: model is not available")
(error "line 2575 column 34: model is not available")
(error "line 2576 column 34: model is not available")
(error "line 2577 column 34: model is not available")
(error "line 2578 column 34: model is not available")
(error "line 2579 column 71: model is not available")
(error "line 2580 column 71: model is not available")
(error "line 2581 column 28: model is not available")
(error "line 2582 column 34: model is not available")
(error "line 2583 column 34: model is not available")
(error "line 2584 column 34: model is not available")
(error "line 2585 column 34: model is not available")
(error "line 2586 column 34: model is not available")
(error "line 2587 column 71: model is not available")
(error "line 2588 column 71: model is not available")
(error "line 2589 column 28: model is not available")
(error "line 2590 column 38: model is not available")
(error "line 2591 column 45: model is not available")
(error "line 2592 column 38: model is not available")
(error "line 2593 column 45: model is not available")
(error "line 2594 column 46: model is not available")
(error "line 2595 column 53: model is not available")
(error "line 2596 column 40: model is not available")
(error "line 2597 column 47: model is not available")
(error "line 2598 column 38: model is not available")
(error "line 2599 column 45: model is not available")
(error "line 2600 column 38: model is not available")
(error "line 2601 column 45: model is not available")
(error "line 2602 column 41: model is not available")
(error "line 2603 column 48: model is not available")
(error "line 2604 column 42: model is not available")
(error "line 2605 column 42: model is not available")
(error "line 2606 column 49: model is not available")
(error "line 2607 column 41: model is not available")
(error "line 2608 column 48: model is not available")
(error "line 2609 column 41: model is not available")
(error "line 2610 column 48: model is not available")
(error "line 2611 column 41: model is not available")
(error "line 2612 column 41: model is not available")
(error "line 2613 column 48: model is not available")
(error "line 2614 column 41: model is not available")
(error "line 2615 column 48: model is not available")
(error "line 2616 column 41: model is not available")
(error "line 2617 column 41: model is not available")
(error "line 2618 column 48: model is not available")
(error "line 2619 column 41: model is not available")
(error "line 2620 column 48: model is not available")
(error "line 2621 column 37: model is not available")
(error "line 2622 column 44: model is not available")
(error "line 2623 column 42: model is not available")
(error "line 2624 column 42: model is not available")
(error "line 2625 column 42: model is not available")
(error "line 2626 column 42: model is not available")
(error "line 2627 column 42: model is not available")
(error "line 2628 column 38: model is not available")
(error "line 2629 column 38: model is not available")
(error "line 2630 column 38: model is not available")
(error "line 2631 column 38: model is not available")
(error "line 2632 column 38: model is not available")
(error "line 2633 column 38: model is not available")
(error "line 2634 column 38: model is not available")
(error "line 2635 column 38: model is not available")
(error "line 2636 column 38: model is not available")
(error "line 2637 column 41: model is not available")
(error "line 2638 column 48: model is not available")
(error "line 2639 column 41: model is not available")
(error "line 2640 column 48: model is not available")
(error "line 2641 column 41: model is not available")
(error "line 2642 column 48: model is not available")
(error "line 2643 column 41: model is not available")
(error "line 2644 column 48: model is not available")
(error "line 2645 column 41: model is not available")
(error "line 2646 column 48: model is not available")
(error "line 2647 column 41: model is not available")
(error "line 2648 column 48: model is not available")
(error "line 2649 column 41: model is not available")
(error "line 2650 column 48: model is not available")
(error "line 2651 column 41: model is not available")
(error "line 2652 column 48: model is not available")
(error "line 2653 column 41: model is not available")
(error "line 2654 column 48: model is not available")
(error "line 2655 column 50: model is not available")
(error "line 2656 column 57: model is not available")
(error "line 2657 column 57: model is not available")
(error "line 2658 column 57: model is not available")
(error "line 2659 column 57: model is not available")
(error "line 2660 column 33: model is not available")
(error "line 2661 column 40: model is not available")
(error "line 2662 column 34: model is not available")
(error "line 2663 column 41: model is not available")
(error "line 2664 column 34: model is not available")
(error "line 2665 column 34: model is not available")
(error "line 2666 column 41: model is not available")
(error "line 2667 column 34: model is not available")
(error "line 2668 column 41: model is not available")
(error "line 2669 column 34: model is not available")
(error "line 2670 column 34: model is not available")
(error "line 2671 column 41: model is not available")
(error "line 2672 column 33: model is not available")
(error "line 2673 column 40: model is not available")
(error "line 2674 column 33: model is not available")
(error "line 2675 column 33: model is not available")
(error "line 2676 column 40: model is not available")
(error "line 2677 column 33: model is not available")
(error "line 2678 column 33: model is not available")
(error "line 2679 column 40: model is not available")
(error "line 2680 column 33: model is not available")
(error "line 2681 column 40: model is not available")
(error "line 2682 column 33: model is not available")
(error "line 2683 column 33: model is not available")
(error "line 2684 column 40: model is not available")
(error "line 2685 column 36: model is not available")
(error "line 2686 column 43: model is not available")
(error "line 2687 column 36: model is not available")
(error "line 2688 column 43: model is not available")
(error "line 2689 column 36: model is not available")
(error "line 2690 column 36: model is not available")
(error "line 2691 column 43: model is not available")
(error "line 2692 column 36: model is not available")
(error "line 2693 column 43: model is not available")
(error "line 2694 column 36: model is not available")
(error "line 2695 column 43: model is not available")
(error "line 2696 column 36: model is not available")
(error "line 2697 column 36: model is not available")
(error "line 2698 column 43: model is not available")
(error "line 2699 column 38: model is not available")
(error "line 2700 column 36: model is not available")
(error "line 2701 column 36: model is not available")
(error "line 2702 column 36: model is not available")
(error "line 2703 column 36: model is not available")
(error "line 2704 column 36: model is not available")
(error "line 2705 column 32: model is not available")
(error "line 2706 column 39: model is not available")
(error "line 2707 column 32: model is not available")
(error "line 2708 column 39: model is not available")
(error "line 2709 column 32: model is not available")
(error "line 2710 column 39: model is not available")
(error "line 2711 column 32: model is not available")
(error "line 2712 column 39: model is not available")
(error "line 2713 column 32: model is not available")
(error "line 2714 column 32: model is not available")
(error "line 2715 column 39: model is not available")
(error "line 2716 column 32: model is not available")
(error "line 2717 column 39: model is not available")
(error "line 2718 column 32: model is not available")
(error "line 2719 column 39: model is not available")
(error "line 2720 column 32: model is not available")
(error "line 2721 column 39: model is not available")
(error "line 2722 column 33: model is not available")
(error "line 2723 column 35: model is not available")
(error "line 2724 column 42: model is not available")
(error "line 2725 column 35: model is not available")
(error "line 2726 column 42: model is not available")
(error "line 2727 column 33: model is not available")
(error "line 2728 column 35: model is not available")
(error "line 2729 column 42: model is not available")
(error "line 2730 column 35: model is not available")
(error "line 2731 column 42: model is not available")
(error "line 2732 column 40: model is not available")
(error "line 2733 column 33: model is not available")
(error "line 2734 column 35: model is not available")
(error "line 2735 column 42: model is not available")
(error "line 2736 column 35: model is not available")
(error "line 2737 column 42: model is not available")
(error "line 2738 column 40: model is not available")
(error "line 2739 column 33: model is not available")
(error "line 2740 column 35: model is not available")
(error "line 2741 column 42: model is not available")
(error "line 2742 column 35: model is not available")
(error "line 2743 column 42: model is not available")
(error "line 2744 column 40: model is not available")
(error "line 2745 column 53: model is not available")
(error "line 2746 column 52: model is not available")
(error "line 2747 column 53: model is not available")
(error "line 2748 column 53: model is not available")
(error "line 2749 column 52: model is not available")
(error "line 2750 column 53: model is not available")
(error "line 2751 column 53: model is not available")
(error "line 2752 column 53: model is not available")
(error "line 2753 column 52: model is not available")
(error "line 2754 column 53: model is not available")
(error "line 2755 column 52: model is not available")
(error "line 2756 column 52: model is not available")
(error "line 2757 column 52: model is not available")
(error "line 2758 column 52: model is not available")
(error "line 2759 column 53: model is not available")
(error "line 2760 column 53: model is not available")
(error "line 2761 column 53: model is not available")
(error "line 2762 column 53: model is not available")
(error "line 2763 column 52: model is not available")
(error "line 2764 column 53: model is not available")
(error "line 2765 column 52: model is not available")
(error "line 2766 column 53: model is not available")
(error "line 2767 column 52: model is not available")
(error "line 2768 column 52: model is not available")
(error "line 2769 column 53: model is not available")
(error "line 2770 column 52: model is not available")
(error "line 2771 column 52: model is not available")
(error "line 2772 column 53: model is not available")
(error "line 2773 column 53: model is not available")
(error "line 2774 column 53: model is not available")
(error "line 2775 column 53: model is not available")
(error "line 2776 column 52: model is not available")
(error "line 2777 column 51: model is not available")
(error "line 2778 column 51: model is not available")
(error "line 2779 column 52: model is not available")
(error "line 2780 column 51: model is not available")
(error "line 2781 column 51: model is not available")
(error "line 2782 column 51: model is not available")
(error "line 2783 column 51: model is not available")
(error "line 2784 column 50: model is not available")
(error "line 2785 column 50: model is not available")
(error "line 2786 column 50: model is not available")
(error "line 2787 column 52: model is not available")
(error "line 2788 column 51: model is not available")
(error "line 2789 column 51: model is not available")
(error "line 2790 column 51: model is not available")
(error "line 2791 column 51: model is not available")
(error "line 2792 column 50: model is not available")
(error "line 2793 column 50: model is not available")
(error "line 2794 column 50: model is not available")
(error "line 2795 column 52: model is not available")
(error "line 2796 column 51: model is not available")
(error "line 2797 column 51: model is not available")
(error "line 2798 column 52: model is not available")
(error "line 2799 column 51: model is not available")
(error "line 2800 column 51: model is not available")
(error "line 2801 column 51: model is not available")
(error "line 2802 column 51: model is not available")
(error "line 2803 column 50: model is not available")
(error "line 2804 column 51: model is not available")
(error "line 2805 column 51: model is not available")
(error "line 2806 column 52: model is not available")
(error "line 2807 column 51: model is not available")
(error "line 2808 column 51: model is not available")
(error "line 2809 column 51: model is not available")
(error "line 2810 column 52: model is not available")
(error "line 2811 column 51: model is not available")
(error "line 2812 column 51: model is not available")
(error "line 2813 column 51: model is not available")
(error "line 2814 column 56: model is not available")
(error "line 2815 column 56: model is not available")
(error "line 2816 column 56: model is not available")
(error "line 2817 column 56: model is not available")
(error "line 2818 column 56: model is not available")
(error "line 2819 column 56: model is not available")
(error "line 2820 column 56: model is not available")
(error "line 2821 column 56: model is not available")
(error "line 2822 column 56: model is not available")
(error "line 2823 column 56: model is not available")
(error "line 2824 column 56: model is not available")
(error "line 2825 column 56: model is not available")
(error "line 2826 column 56: model is not available")
(error "line 2827 column 56: model is not available")
(error "line 2828 column 55: model is not available")
(error "line 2829 column 55: model is not available")
(error "line 2830 column 55: model is not available")
(error "line 2831 column 55: model is not available")
(error "line 2832 column 55: model is not available")
(error "line 2833 column 55: model is not available")
(error "line 2834 column 55: model is not available")
(error "line 2835 column 55: model is not available")
(error "line 2836 column 55: model is not available")
(error "line 2837 column 55: model is not available")
(error "line 2838 column 55: model is not available")
(error "line 2839 column 55: model is not available")
(error "line 2840 column 55: model is not available")
(error "line 2841 column 55: model is not available")
(error "line 2842 column 36: model is not available")
(error "line 2843 column 36: model is not available")
(error "line 2844 column 36: model is not available")
(error "line 2845 column 36: model is not available")
(error "line 2846 column 46: model is not available")
(error "line 2847 column 46: model is not available")
(error "line 2848 column 46: model is not available")
(error "line 2849 column 46: model is not available")
(error "line 2850 column 46: model is not available")
(error "line 2851 column 46: model is not available")
(error "line 2852 column 46: model is not available")
(error "line 2853 column 46: model is not available")
(error "line 2854 column 54: model is not available")
(error "line 2855 column 54: model is not available")
(error "line 2856 column 54: model is not available")
(error "line 2857 column 54: model is not available")
(error "line 2858 column 54: model is not available")
(error "line 2859 column 54: model is not available")
(error "line 2860 column 54: model is not available")
(error "line 2861 column 54: model is not available")
(error "line 2862 column 54: model is not available")
(error "line 2863 column 54: model is not available")
(error "line 2864 column 54: model is not available")
(error "line 2865 column 54: model is not available")
(error "line 2866 column 40: model is not available")
(error "line 2867 column 40: model is not available")
(error "line 2868 column 40: model is not available")
(error "line 2869 column 40: model is not available")
(error "line 2870 column 40: model is not available")
(error "line 2871 column 40: model is not available")
(error "line 2872 column 40: model is not available")
(error "line 2873 column 40: model is not available")
(error "line 2874 column 41: model is not available")
(error "line 2875 column 41: model is not available")
(error "line 2876 column 41: model is not available")
(error "line 2877 column 41: model is not available")
(error "line 2878 column 41: model is not available")
(error "line 2879 column 41: model is not available")
(error "line 2880 column 41: model is not available")
(error "line 2881 column 41: model is not available")
(error "line 2882 column 50: model is not available")
(error "line 2883 column 50: model is not available")
(error "line 2884 column 50: model is not available")
(error "line 2885 column 50: model is not available")
(error "line 2886 column 50: model is not available")
(error "line 2887 column 50: model is not available")
(error "line 2888 column 50: model is not available")
(error "line 2889 column 50: model is not available")
(error "line 2890 column 43: model is not available")
(error "line 2891 column 43: model is not available")
(error "line 2892 column 43: model is not available")
(error "line 2893 column 43: model is not available")
(error "line 2894 column 43: model is not available")
(error "line 2895 column 43: model is not available")
(error "line 2896 column 43: model is not available")
(error "line 2897 column 43: model is not available")
(error "line 2898 column 26: model is not available")
(error "line 2899 column 30: model is not available")
(error "line 2900 column 30: model is not available")
(error "line 2901 column 30: model is not available")
(error "line 2902 column 30: model is not available")
(error "line 2903 column 18: model is not available")
(error "line 2904 column 25: model is not available")
(error "line 2905 column 18: model is not available")
(error "line 2906 column 25: model is not available")
(error "line 2907 column 18: model is not available")
(error "line 2908 column 18: model is not available")
(error "line 2909 column 25: model is not available")
(error "line 2910 column 18: model is not available")
(error "line 2911 column 25: model is not available")
(error "line 2912 column 18: model is not available")
(error "line 2913 column 25: model is not available")
(error "line 2914 column 18: model is not available")
(error "line 2915 column 18: model is not available")
(error "line 2916 column 25: model is not available")
(error "line 2917 column 18: model is not available")
(error "line 2918 column 25: model is not available")
(error "line 2919 column 18: model is not available")
(error "line 2920 column 18: model is not available")
(error "line 2921 column 25: model is not available")
(error "line 2922 column 18: model is not available")
(error "line 2923 column 18: model is not available")
(error "line 2924 column 25: model is not available")
(error "line 2925 column 18: model is not available")
(error "line 2926 column 25: model is not available")
(error "line 2928 column 10: model is not available")
(:added-eqs                      892
 :arith-bound-propagations-cheap 199
 :arith-bound-propagations-lp    143
 :arith-conflicts                3
 :arith-lower                    206
 :arith-make-feasible            90
 :arith-max-columns              183
 :arith-max-rows                 132
 :arith-propagations             199
 :arith-upper                    225
 :array-ax1                      4
 :binary-propagations            3365
 :bv-bit2core                    3806
 :bv-diseqs                      6
 :bv->core-eq                    62
 :conflicts                      80
 :decisions                      126
 :del-clause                     542
 :eliminated-applications        25
 :eliminated-vars                21
 :max-memory                     4.94
 :memory                         3.34
 :minimized-lits                 261
 :mk-bool-var                    1412
 :mk-clause                      1459
 :num-allocs                     1938055
 :num-checks                     1
 :propagations                   6505
 :rlimit-count                   117057
 :time                           0.02
 :total-time                     0.03)

real	0m0.031s
user	0m0.031s
sys	0m0.000s
State: RE Run_time: 0.033028602600097656